100
1000
200
200
200
199
199
198
197
196
196
195
195
194
194
193
193
193
191
191
190
189
189
188
188
188
188
188
185
185
185
184
182
182
181
181
180
180
180
180
179
179
178
177
177
176
176
176
176
175
175
174
173
173
173
172
172
171
171
171
169
168
167
167
166
166
166
165
165
164
164
163
163
163
163
163
162
162
162
161
160
160
159
159
159
158
158
157
157
157
157
157
157
155
154
154
154
152
151
151
151
150
